webassembly/ejemplos_results/15/folder15_json_13.txt
value = 15;
fgas = [1, 1, 1, 1, 1, 1, 1, 1, 1, 1, 1, 1, 2, 1, 1];
fsize = [1, 1, 1, 1, 1, 1, 1, 1, 1, 1, 1, 1, 1, 1, 1];
states = 
[|   in_0,   in_1, in_2, in_3, in_4, in_5, in_6, in_7, in_8, '.', '.', '.', '.', '.'
 |   in_0,   in_1, in_2, in_3, in_4, in_5, in_6, in_7, in_8, '.', '.', '.', '.', '.'
 |   in_1,   in_2, in_3, in_4, in_5, in_6, in_7, in_8,  '.', '.', '.', '.', '.', '.'
 | 's(0)',   in_2, in_3, in_4, in_5, in_6, in_7, in_8,  '.', '.', '.', '.', '.', '.'
 |   in_2,   in_3, in_4, in_5, in_6, in_7, in_8,  '.',  '.', '.', '.', '.', '.', '.'
 | 's(1)',   in_3, in_4, in_5, in_6, in_7, in_8,  '.',  '.', '.', '.', '.', '.', '.'
 |   in_5,   in_4, in_6, in_7, in_8,  '.',  '.',  '.',  '.', '.', '.', '.', '.', '.'
 |   in_4,   in_6, in_7, in_8,  '.',  '.',  '.',  '.',  '.', '.', '.', '.', '.', '.'
 |   in_6,   in_7, in_8,  '.',  '.',  '.',  '.',  '.',  '.', '.', '.', '.', '.', '.'
 | 's(3)',   in_7, in_8,  '.',  '.',  '.',  '.',  '.',  '.', '.', '.', '.', '.', '.'
 |   in_4, 's(2)',  '.',  '.',  '.',  '.',  '.',  '.',  '.', '.', '.', '.', '.', '.'
 |   in_4,   in_8,  '.',  '.',  '.',  '.',  '.',  '.',  '.', '.', '.', '.', '.', '.'
 | 's(2)',   in_8,  '.',  '.',  '.',  '.',  '.',  '.',  '.', '.', '.', '.', '.', '.'
 |   in_8,    '.',  '.',  '.',  '.',  '.',  '.',  '.',  '.', '.', '.', '.', '.', '.'
 | 's(5)',   in_8,  '.',  '.',  '.',  '.',  '.',  '.',  '.', '.', '.', '.', '.', '.'
 | 's(4)',    '.',  '.',  '.',  '.',  '.',  '.',  '.',  '.', '.', '.', '.', '.', '.'
 |];
register_states = 
[| local_0, local_1, '.', '.', '.', '.', '.'
 | local_0,    in_0, '.', '.', '.', '.', '.'
 | local_0,    in_0, '.', '.', '.', '.', '.'
 | local_0,    in_0, '.', '.', '.', '.', '.'
 | local_0,  's(0)', '.', '.', '.', '.', '.'
 | local_0,  's(0)', '.', '.', '.', '.', '.'
 | local_0,  's(0)', '.', '.', '.', '.', '.'
 |    in_5,  's(0)', '.', '.', '.', '.', '.'
 |    in_5,    in_4, '.', '.', '.', '.', '.'
 |    in_5,    in_4, '.', '.', '.', '.', '.'
 |    in_5,    in_4, '.', '.', '.', '.', '.'
 |    in_5,    in_4, '.', '.', '.', '.', '.'
 |    in_5,    in_4, '.', '.', '.', '.', '.'
 |    in_5,    in_4, '.', '.', '.', '.', '.'
 |    in_5,    in_4, '.', '.', '.', '.', '.'
 |    in_5,    in_4, '.', '.', '.', '.', '.'
 |];
program = [TEE(TEE2), S(SET2), O('i32.load8_u_2'), S(SET2), O('i32.load_4'), O('i32.store16_5'), S(SET1), S(SET2), O('i32.load_11'), O('i32.store_12'), O('i32.store8_9'), O('i32.load_7'), POP, O('i32.const_0'), O('i32.add_0')];
% time elapsed: 0.74 s
----------
value = 14;
fgas = [1, 1, 2, 1, 1, 1, 1, 1, 1, 1, 1, 2, 1, 1, 0];
fsize = [1, 1, 1, 1, 1, 1, 1, 1, 1, 1, 1, 1, 1, 1, 1];
states = 
[|   in_0,   in_1, in_2, in_3, in_4, in_5, in_6, in_7, in_8, '.', '.', '.', '.', '.'
 |   in_1,   in_2, in_3, in_4, in_5, in_6, in_7, in_8,  '.', '.', '.', '.', '.', '.'
 | 's(0)',   in_2, in_3, in_4, in_5, in_6, in_7, in_8,  '.', '.', '.', '.', '.', '.'
 |   in_2,   in_3, in_4, in_5, in_6, in_7, in_8,  '.',  '.', '.', '.', '.', '.', '.'
 | 's(1)',   in_3, in_4, in_5, in_6, in_7, in_8,  '.',  '.', '.', '.', '.', '.', '.'
 |   in_4,   in_5, in_6, in_7, in_8,  '.',  '.',  '.',  '.', '.', '.', '.', '.', '.'
 |   in_5,   in_6, in_7, in_8,  '.',  '.',  '.',  '.',  '.', '.', '.', '.', '.', '.'
 |   in_6,   in_7, in_8,  '.',  '.',  '.',  '.',  '.',  '.', '.', '.', '.', '.', '.'
 | 's(3)',   in_7, in_8,  '.',  '.',  '.',  '.',  '.',  '.', '.', '.', '.', '.', '.'
 |   in_4, 's(2)',  '.',  '.',  '.',  '.',  '.',  '.',  '.', '.', '.', '.', '.', '.'
 |   in_4,   in_8,  '.',  '.',  '.',  '.',  '.',  '.',  '.', '.', '.', '.', '.', '.'
 | 's(2)',   in_8,  '.',  '.',  '.',  '.',  '.',  '.',  '.', '.', '.', '.', '.', '.'
 |   in_8,    '.',  '.',  '.',  '.',  '.',  '.',  '.',  '.', '.', '.', '.', '.', '.'
 | 's(5)',   in_8,  '.',  '.',  '.',  '.',  '.',  '.',  '.', '.', '.', '.', '.', '.'
 | 's(4)',    '.',  '.',  '.',  '.',  '.',  '.',  '.',  '.', '.', '.', '.', '.', '.'
 | 's(4)',    '.',  '.',  '.',  '.',  '.',  '.',  '.',  '.', '.', '.', '.', '.', '.'
 |];
register_states = 
[| local_0, local_1, '.', '.', '.', '.', '.'
 |    in_0, local_1, '.', '.', '.', '.', '.'
 |    in_0, local_1, '.', '.', '.', '.', '.'
 |    in_0, local_1, '.', '.', '.', '.', '.'
 |    in_0, local_1, '.', '.', '.', '.', '.'
 |    in_0, local_1, '.', '.', '.', '.', '.'
 |    in_0,    in_4, '.', '.', '.', '.', '.'
 |    in_5,    in_4, '.', '.', '.', '.', '.'
 |    in_5,    in_4, '.', '.', '.', '.', '.'
 |    in_5,    in_4, '.', '.', '.', '.', '.'
 |    in_5,    in_4, '.', '.', '.', '.', '.'
 |    in_5,    in_4, '.', '.', '.', '.', '.'
 |    in_5,    in_4, '.', '.', '.', '.', '.'
 |    in_5,    in_4, '.', '.', '.', '.', '.'
 |    in_5,    in_4, '.', '.', '.', '.', '.'
 |    in_5,    in_4, '.', '.', '.', '.', '.'
 |];
program = [S(SET1), O('i32.load8_u_2'), POP, O('i32.load_4'), O('i32.store16_5'), S(SET2), S(SET1), O('i32.load_11'), O('i32.store_12'), O('i32.store8_9'), O('i32.load_7'), POP, O('i32.const_0'), O('i32.add_0'), NOP];
% time elapsed: 0.78 s
----------
=====UNKNOWN=====
% time elapsed: 0.99 s
